136
10000000
10607
861063
118
189447
784388
804860
268092
1224390
839907
1656228
1539760
518582
1334080
2297761
388975
2272779
1520394
691273
2497609
908465
301591
2477202
1074823
1546172
1214399
76622
44995
403932
721091
1618823
2280881
2094828
2299632
2036086
1360994
1069797
2238255
647294
746006
1432971
1098663
1138122
801925
1181212
2464481
403145
1205584
2365561
1154813
220194
1262290
1300338
445503
1590650
1369671
2263094
1043368
189724
2165977
1872740
2423514
1362555
523707
1338156
186072
1956409
1879752
559560
67241
130595
516748
751235
787221
121991
517859
1379474
1614700
2255026
881180
182971
491509
162197
1334650
1716464
422202
752532
2409651
1002634
2417260
1830412
964845
1041229
1966688
1497422
238016
1346158
1973067
997924
326830
265229
818758
934395
244380
199106
174916
705670
21868
2018761
446211
122660
1366704
1492168
1880481
770607
1239991
213439
828584
1066617
2308785
1808186
2305800
711968
67844
1422714
115473
192504
1052848
1989579
751260
1090289
1214269
1207262
1943152
762133
1364856
720650
